c Random generated cnf formula, satisfiable: true
p cnf 10 50
6 1 4 0
8 -1 2 0
-2 6 -9 0
10 6 -7 0
4 9 8 0
9 4 5 0
-3 -1 -6 0
-5 -3 -2 0
6 -9 -1 0
9 -3 5 0
-5 -6 1 0
3 2 -5 0
-9 -1 2 0
-9 -3 -7 0
-6 -9 -5 0
-3 -2 1 0
8 7 -4 0
-3 5 -1 0
-2 -3 -4 0
-9 -6 -10 0
-3 6 -10 0
-9 2 8 0
-2 4 -10 0
8 5 -4 0
-10 3 -8 0
9 -2 6 0
-7 -1 -3 0
10 4 -5 0
2 10 -7 0
1 10 9 0
-10 2 -8 0
9 10 -5 0
3 -5 -9 0
-4 -1 -9 0
-10 1 -6 0
9 -10 -6 0
2 -8 -6 0
-1 9 3 0
-5 2 -6 0
-7 -8 5 0
3 10 -1 0
-3 7 9 0
6 -5 2 0
-10 7 -1 0
-9 3 -6 0
2 7 -1 0
7 6 -5 0
10 -6 -9 0
-6 -2 8 0
-5 9 -1 0
